InboundTrucks  = 8;
OutboundTrucks = 5;
InboundDoors   = 4;
OutboundDoors  = 4;
ReleaseTime    = [97,49,82,60,52,111,25,25];
UnloadTime     = [35,13,37,38,38,12,43,30];
LoadTime       = [11,12,20,25,24];
TransferTime   = [| 43,0,35,30,40 | 18,37,39,0,43 | 25,26,38,40,41 | 27,12,21,50,16 | 0,34,26,0,21 | 23,22,0,0,18 | 0,0,37,25,29 | 32,22,29,0,0 |];
